(set-logic QF_S)
(declare-fun var0 () String)
(assert (RegexIn var0 (RegexConcat (RegexStar (RegexUnion (Str2Reg "0") (Str2Reg "111"))) (RegexConcat (RegexPlus (RegexStar (Str2Reg "22"))) (RegexConcat (RegexUnion (RegexPlus (Str2Reg "333")) (RegexPlus (Str2Reg "4"))) (RegexConcat (RegexPlus (RegexStar (Str2Reg "5"))) (RegexConcat (RegexUnion (RegexPlus (Str2Reg "6")) (RegexPlus (Str2Reg "77"))) (RegexConcat (RegexPlus (RegexUnion (Str2Reg "888") (Str2Reg "99"))) (RegexConcat (RegexStar (RegexStar (Str2Reg "aa"))) (RegexConcat (RegexPlus (RegexPlus (Str2Reg "b"))) (RegexConcat (RegexPlus (RegexUnion (Str2Reg "cc") (Str2Reg "ddd"))) (RegexConcat (RegexUnion (RegexPlus (Str2Reg "eee")) (RegexPlus (Str2Reg "fff"))) (RegexConcat (RegexUnion (RegexPlus (Str2Reg "g")) (RegexPlus (Str2Reg "hhh"))) (RegexConcat (RegexPlus (RegexUnion (Str2Reg "i") (Str2Reg "jjj"))) (RegexConcat (RegexPlus (RegexStar (Str2Reg "k"))) (RegexConcat (RegexStar (RegexPlus (Str2Reg "l"))) (RegexConcat (RegexStar (RegexStar (Str2Reg "mm"))) (RegexConcat (RegexUnion (RegexPlus (Str2Reg "nn")) (RegexPlus (Str2Reg "ooo"))) (RegexConcat (RegexPlus (RegexPlus (Str2Reg "p"))) (RegexConcat (RegexUnion (RegexStar (Str2Reg "qq")) (RegexStar (Str2Reg "rrr"))) (RegexConcat (RegexStar (RegexPlus (Str2Reg "s"))) (RegexConcat (RegexUnion (RegexStar (Str2Reg "t")) (RegexStar (Str2Reg "uuu"))) (RegexConcat (RegexStar (RegexPlus (Str2Reg "v"))) (RegexConcat (RegexStar (RegexStar (Str2Reg "www"))) (RegexConcat (RegexStar (RegexPlus (Str2Reg "xx"))) (RegexConcat (RegexUnion (RegexUnion (Str2Reg "yy") (Str2Reg "z")) (RegexUnion (Str2Reg "A") (Str2Reg "B"))) (RegexConcat (RegexStar (RegexPlus (Str2Reg "CC"))) (RegexConcat (RegexStar (RegexStar (Str2Reg "DDD"))) (RegexConcat (RegexPlus (RegexPlus (Str2Reg "EEE"))) (RegexConcat (RegexPlus (RegexPlus (Str2Reg "F"))) (RegexConcat (RegexUnion (RegexUnion (Str2Reg "G") (Str2Reg "H")) (RegexUnion (Str2Reg "II") (Str2Reg "JJ"))) (RegexConcat (RegexStar (RegexUnion (Str2Reg "KKK") (Str2Reg "L"))) (RegexUnion (RegexUnion (Str2Reg "MM") (Str2Reg "NN")) (RegexUnion (Str2Reg "O") (Str2Reg "PPP")))))))))))))))))))))))))))))))))))
(assert (not (RegexIn var0 (RegexConcat (RegexStar (RegexStar (Str2Reg "0"))) (RegexConcat (RegexPlus (RegexStar (Str2Reg "1"))) (RegexConcat (RegexUnion (RegexStar (Str2Reg "222")) (RegexStar (Str2Reg "333"))) (RegexConcat (RegexStar (RegexPlus (Str2Reg "4"))) (RegexConcat (RegexStar (RegexStar (Str2Reg "55"))) (RegexConcat (RegexUnion (RegexPlus (Str2Reg "66")) (RegexPlus (Str2Reg "77"))) (RegexConcat (RegexPlus (RegexStar (Str2Reg "888"))) (RegexConcat (RegexStar (RegexStar (Str2Reg "9"))) (RegexConcat (RegexUnion (RegexPlus (Str2Reg "aaa")) (RegexPlus (Str2Reg "bbb"))) (RegexConcat (RegexPlus (RegexUnion (Str2Reg "ccc") (Str2Reg "d"))) (RegexConcat (RegexStar (RegexStar (Str2Reg "ee"))) (RegexConcat (RegexUnion (RegexStar (Str2Reg "ff")) (RegexStar (Str2Reg "ggg"))) (RegexConcat (RegexUnion (RegexPlus (Str2Reg "h")) (RegexPlus (Str2Reg "ii"))) (RegexConcat (RegexStar (RegexUnion (Str2Reg "j") (Str2Reg "k"))) (RegexConcat (RegexStar (RegexPlus (Str2Reg "l"))) (RegexConcat (RegexPlus (RegexStar (Str2Reg "mm"))) (RegexConcat (RegexPlus (RegexStar (Str2Reg "n"))) (RegexConcat (RegexUnion (RegexPlus (Str2Reg "oo")) (RegexPlus (Str2Reg "ppp"))) (RegexConcat (RegexUnion (RegexPlus (Str2Reg "q")) (RegexPlus (Str2Reg "rrr"))) (RegexConcat (RegexStar (RegexPlus (Str2Reg "s"))) (RegexConcat (RegexPlus (RegexPlus (Str2Reg "ttt"))) (RegexConcat (RegexPlus (RegexUnion (Str2Reg "uuu") (Str2Reg "vv"))) (RegexConcat (RegexStar (RegexStar (Str2Reg "w"))) (RegexConcat (RegexPlus (RegexStar (Str2Reg "xxx"))) (RegexConcat (RegexUnion (RegexUnion (Str2Reg "yyy") (Str2Reg "zz")) (RegexUnion (Str2Reg "AA") (Str2Reg "BBB"))) (RegexConcat (RegexStar (RegexStar (Str2Reg "C"))) (RegexConcat (RegexPlus (RegexUnion (Str2Reg "DDD") (Str2Reg "EEE"))) (RegexConcat (RegexStar (RegexPlus (Str2Reg "FF"))) (RegexConcat (RegexStar (RegexStar (Str2Reg "GG"))) (RegexConcat (RegexUnion (RegexStar (Str2Reg "HHH")) (RegexStar (Str2Reg "I"))) (RegexPlus (RegexStar (Str2Reg "JJ"))))))))))))))))))))))))))))))))))))
(check-sat)